\ LP format - for model browsing. Use MPS format to capture full model detail.
Minimize
  s + r
Subject To
 R0: 3 s + 6 r <= 90
 R1: 20 s + 30 r >= 500
 R2: 4 s + 5 r <= 90
 R3: - s + r <= 0
Bounds
Generals
 s r
End
